p cnf 64 232
2 -1 0
2 1 0
-5 3 0
-5 -4 0
-3 4 5 0
-8 6 0
-8 7 0
-6 -7 8 0
9 6 0
9 -8 0
-6 8 -9 0
-10 -5 0
-10 9 0
5 -9 10 0
12 -11 0
12 10 0
11 -10 -12 0
13 -8 0
13 12 0
8 -12 -13 0
-14 13 0
-14 -1 0
-13 1 14 0
-10 14 -15 0
10 -14 -15 0
-10 -14 15 0
10 14 15 0
17 15 0
17 -16 0
-15 16 -17 0
-18 -9 0
-18 -7 0
9 7 18 0
-19 18 0
-19 -10 0
-18 10 19 0
-20 -17 0
-20 -19 0
17 19 20 0
21 -2 0
21 20 0
2 -20 -21 0
-22 6 0
-22 -9 0
-6 9 22 0
24 -7 0
24 -23 0
7 23 -24 0
25 -12 0
25 -24 0
12 24 -25 0
-26 -22 0
-26 25 0
22 -25 26 0
28 27 0
28 5 0
-27 -5 -28 0
29 -22 0
29 -28 0
22 28 -29 0
-15 -3 -30 0
15 3 -30 0
-15 3 30 0
15 -3 30 0
-14 -30 -31 0
14 30 -31 0
-14 30 31 0
14 -30 31 0
29 -31 -32 0
-29 31 -32 0
29 31 32 0
-29 -31 32 0
-11 1 -33 0
11 -1 -33 0
-11 -1 33 0
11 1 33 0
34 33 0
34 16 0
-33 -16 -34 0
35 34 0
35 9 0
-34 -9 -35 0
-13 -35 -36 0
13 35 -36 0
-13 35 36 0
13 -35 36 0
37 10 0
37 -5 0
-10 5 -37 0
37 6 -38 0
-37 -6 -38 0
37 -6 38 0
-37 6 38 0
-39 -38 0
-39 16 0
38 -16 39 0
-40 -36 0
-40 39 0
36 -39 40 0
-13 24 -41 0
13 -24 -41 0
-13 -24 41 0
13 24 41 0
-42 16 0
-42 5 0
-16 -5 42 0
-43 -15 0
-43 -42 0
15 42 43 0
-45 -27 0
-45 -42 0
27 42 45 0
44 -45 -46 0
-44 45 -46 0
44 45 46 0
-44 -45 46 0
-43 46 -47 0
43 -46 -47 0
-43 -46 47 0
43 46 47 0
48 -41 0
48 47 0
41 -47 -48 0
40 48 -49 0
-40 -48 -49 0
40 -48 49 0
-40 48 49 0
50 -32 0
50 49 0
32 -49 -50 0
51 26 0
51 50 0
-26 -50 -51 0
21 51 -52 0
-21 -51 -52 0
21 -51 52 0
-21 51 52 0
13 34 -53 0
-13 -34 -53 0
13 -34 53 0
-13 34 53 0
54 33 0
54 -53 0
-33 53 -54 0
-55 6 0
-55 -9 0
-6 9 55 0
-56 -55 0
-56 -18 0
55 18 56 0
1 56 -57 0
-1 -56 -57 0
1 -56 57 0
-1 56 57 0
-54 57 -58 0
54 -57 -58 0
-54 -57 58 0
54 57 58 0
-59 54 0
-59 3 0
-54 -3 59 0
-58 -59 -60 0
58 59 -60 0
-58 59 60 0
58 -59 60 0
-61 -23 0
-61 35 0
23 -35 61 0
62 -61 0
62 56 0
61 -56 -62 0
60 -62 -63 0
-60 62 -63 0
60 62 63 0
-60 -62 63 0
64 -52 0
64 -63 0
52 63 -64 0
59 14 28 40 54 0
-48 -18 0
24 -5 -52 34 -42 45 0
-23 63 0
6 64 -15 0
7 29 0
-20 61 2 40 46 -28 0
-21 46 62 12 0
-16 -1 0
-6 43 0
64 -48 0
29 -1 53 0
17 -63 -56 1 -19 0
-47 40 -33 -2 9 -60 0
5 -7 23 0
39 40 -14 0
-23 4 32 -40 -17 0
-15 52 -33 0
4 59 49 18 -50 0
-23 9 38 36 0
-33 -59 -4 -64 -42 0
-53 -18 0
30 35 -33 51 63 0
-19 -33 -36 -58 0
47 -42 -34 -2 0
-58 -1 0
-39 -28 11 0
-21 -47 0
22 39 0
46 24 0
-46 -32 -12 -54 -36 0
45 21 -47 -61 9 -7 0
14 -19 40 0
-35 -48 59 63 -7 0
7 58 0
-50 32 0
-1 -3 0
41 -32 0
48 -27 19 -10 0
-6 -44 -49 -14 32 0
-31 26 0
-18 -40 38 9 0
23 56 -32 43 -50 0
-12 -5 0
-61 51 29 -11 41 0
38 -49 -56 63 -15 0
-17 -56 14 43 -21 31 0
24 -39 7 -27 61 0
9 -4 14 -50 2 -48 0
-34 63 -9 0
35 -50 -3 0
27 -42 -64 1 21 -26 0
26 -8 14 51 11 49 0
64 0
